\ENCODING=ISO-8859-1
\Problem name: TSP

Minimize
 obj1: 0 x1 + 3.25006155774801 x2 + 4.45009583638835 x3 + 12.0415826989107 x4
       + 7.2454024520594 x5 + 6.59905641237921 x6 + 8.8889543864355 x7
       + 16.1377677153456 x8 + 17.3565236634727 x9 + 2.52673872204987 x10
       + 3.25006155774801 x11 + 0 x12 + 3.34995517129655 x13
       + 8.92305928827338 x14 + 5.79008173288206 x15 + 4.47333292508811 x16
       + 7.02969596587261 x17 + 13.7218704725868 x18 + 14.4690975553861 x19
       + 2.53946972000629 x20 + 4.45009583638835 x21 + 3.34995517129655 x22
       + 0 x23 + 8.74799944136664 x24 + 2.80718285710233 x25
       + 7.69160483617068 x26 + 10.2500857394761 x27 + 16.4780172726473 x28
       + 16.6339259069481 x29 + 5.44417930221854 x30 + 12.0415826989107 x31
       + 8.92305928827338 x32 + 8.74799944136664 x33 + 0 x34
       + 7.6427824239577 x35 + 9.45080380765211 x36 + 10.8131489125211 x37
       + 12.8857607714783 x38 + 10.9692194271751 x39 + 11.1793892573351 x40
       + 7.2454024520594 x41 + 5.79008173288206 x42 + 2.80718285710233 x43
       + 7.6427824239577 x44 + 0 x45 + 9.67264842052793 x46
       + 12.145045335477 x47 + 17.5887591510847 x48 + 17.1034557751198 x49
       + 8.13245878447423 x50 + 6.59905641237921 x51 + 4.47333292508811 x52
       + 7.69160483617068 x53 + 9.45080380765211 x54 + 9.67264842052793 x55
       + 0 x56 + 2.56299138554278 x57 + 9.53935661191513 x58
       + 11.0108611912593 x59 + 4.17467792444835 x60 + 8.8889543864355 x61
       + 7.02969596587261 x62 + 10.2500857394761 x63 + 10.8131489125211 x64
       + 12.145045335477 x65 + 2.56299138554278 x66 + 0 x67
       + 7.43910631405381 x68 + 9.62391175273699 x69 + 6.37213998718459 x70
       + 16.1377677153456 x71 + 13.7218704725868 x72 + 16.4780172726473 x73
       + 12.8857607714783 x74 + 17.5887591510847 x75 + 9.53935661191513 x76
       + 7.43910631405381 x77 + 0 x78 + 4.03978423762999 x79
       + 13.679657933041 x80 + 17.3565236634727 x81 + 14.4690975553861 x82
       + 16.6339259069481 x83 + 10.9692194271751 x84 + 17.1034557751198 x85
       + 11.0108611912593 x86 + 9.62391175273699 x87 + 4.03978423762999 x88
       + 0 x89 + 15.1155166869522 x90 + 2.52673872204987 x91
       + 2.53946972000629 x92 + 5.44417930221854 x93 + 11.1793892573351 x94
       + 8.13245878447423 x95 + 4.17467792444835 x96 + 6.37213998718459 x97
       + 13.679657933041 x98 + 15.1155166869522 x99 + 0 x100 + 0 x101 + 0 x102
       + 0 x103 + 0 x104 + 0 x105 + 0 x106 + 0 x107 + 0 x108 + 0 x109
Subject To
 c1:  x11 + x21 + x31 + x41 + x51 + x61 + x71 + x81 + x91  = 1
 c2:  x2 + x22 + x32 + x42 + x52 + x62 + x72 + x82 + x92  = 1
 c3:  x3 + x13 + x33 + x43 + x53 + x63 + x73 + x83 + x93  = 1
 c4:  x4 + x14 + x24 + x44 + x54 + x64 + x74 + x84 + x94  = 1
 c5:  x5 + x15 + x25 + x35 + x55 + x65 + x75 + x85 + x95  = 1
 c6:  x6 + x16 + x26 + x36 + x46 + x66 + x76 + x86 + x96  = 1
 c7:  x7 + x17 + x27 + x37 + x47 + x57 + x77 + x87 + x97  = 1
 c8:  x8 + x18 + x28 + x38 + x48 + x58 + x68 + x88 + x98  = 1
 c9:  x9 + x19 + x29 + x39 + x49 + x59 + x69 + x79 + x99  = 1
 c10: x10 + x20 + x30 + x40 + x50 + x60 + x70 + x80 + x90  = 1
 c11: x2 + x3 + x4 + x5 + x6 + x7 + x8 + x9 + x10  = 1
 c12: x11 + x13 + x14 + x15 + x16 + x17 + x18 + x19 + x20  = 1
 c13: x21 + x22 + x24 + x25 + x26 + x27 + x28 + x29 + x30  = 1
 c14: x31 + x32 + x33 + x35 + x36 + x37 + x38 + x39 + x40  = 1
 c15: x41 + x42 + x43 + x44 + x46 + x47 + x48 + x49 + x50  = 1
 c16: x51 + x52 + x53 + x54 + x55 + x57 + x58 + x59 + x60  = 1
 c17: x61 + x62 + x63 + x64 + x65 + x66 + x68 + x69 + x70  = 1
 c18: x71 + x72 + x73 + x74 + x75 + x76 + x77 + x79 + x80  = 1
 c19: x81 + x82 + x83 + x84 + x85 + x86 + x87 + x88 + x90  = 1
 c20: x91 + x92 + x93 + x94 + x95 + x96 + x97 + x98 + x99  = 1
Lazy Constraints
 l1:   x101 - x102 + 9 x13 <= 8
 l2:   x101 - x103 + 9 x14 <= 8
 l3:   x101 - x104 + 9 x15 <= 8
 l4:   x101 - x105 + 9 x16 <= 8
 l5:   x101 - x106 + 9 x17 <= 8
 l6:   x101 - x107 + 9 x18 <= 8
 l7:   x101 - x108 + 9 x19 <= 8
 l8:   x101 - x109 + 9 x20 <= 8
 l9:   x102 - x101 + 9 x22 <= 8
 l10:  x102 - x103 + 9 x24 <= 8
 l11:  x102 - x104 + 9 x25 <= 8
 l12:  x102 - x105 + 9 x26 <= 8
 l13:  x102 - x106 + 9 x27 <= 8
 l14:  x102 - x107 + 9 x28 <= 8
 l15:  x102 - x108 + 9 x29 <= 8
 l16:  x102 - x109 + 9 x30 <= 8
 l17:  x103 - x101 + 9 x32 <= 8
 l18:  x103 - x102 + 9 x33 <= 8
 l19:  x103 - x104 + 9 x35 <= 8
 l20:  x103 - x105 + 9 x36 <= 8
 l21:  x103 - x106 + 9 x37 <= 8
 l22:  x103 - x107 + 9 x38 <= 8
 l23:  x103 - x108 + 9 x39 <= 8
 l24:  x103 - x109 + 9 x40 <= 8
 l25:  x104 - x101 + 9 x42 <= 8
 l26:  x104 - x102 + 9 x43 <= 8
 l27:  x104 - x103 + 9 x44 <= 8
 l28:  x104 - x105 + 9 x46 <= 8
 l29:  x104 - x106 + 9 x47 <= 8
 l30:  x104 - x107 + 9 x48 <= 8
 l31:  x104 - x108 + 9 x49 <= 8
 l32:  x104 - x109 + 9 x50 <= 8
 l33:  x105 - x101 + 9 x52 <= 8
 l34:  x105 - x102 + 9 x53 <= 8
 l35:  x105 - x103 + 9 x54 <= 8
 l36:  x105 - x104 + 9 x55 <= 8
 l37:  x105 - x106 + 9 x57 <= 8
 l38:  x105 - x107 + 9 x58 <= 8
 l39:  x105 - x108 + 9 x59 <= 8
 l40:  x105 - x109 + 9 x60 <= 8
 l41:  x106 - x101 + 9 x62 <= 8
 l42:  x106 - x102 + 9 x63 <= 8
 l43:  x106 - x103 + 9 x64 <= 8
 l44:  x106 - x104 + 9 x65 <= 8
 l45:  x106 - x105 + 9 x66 <= 8
 l46:  x106 - x107 + 9 x68 <= 8
 l47:  x106 - x108 + 9 x69 <= 8
 l48:  x106 - x109 + 9 x70 <= 8
 l49:  x107 - x101 + 9 x72 <= 8
 l50:  x107 - x102 + 9 x73 <= 8
 l51:  x107 - x103 + 9 x74 <= 8
 l52:  x107 - x104 + 9 x75 <= 8
 l53:  x107 - x105 + 9 x76 <= 8
 l54:  x107 - x106 + 9 x77 <= 8
 l55:  x107 - x108 + 9 x79 <= 8
 l56:  x107 - x109 + 9 x80 <= 8
 l57:  x108 - x101 + 9 x82 <= 8
 l58:  x108 - x102 + 9 x83 <= 8
 l59:  x108 - x103 + 9 x84 <= 8
 l60:  x108 - x104 + 9 x85 <= 8
 l61:  x108 - x105 + 9 x86 <= 8
 l62:  x108 - x106 + 9 x87 <= 8
 l63:  x108 - x107 + 9 x88 <= 8
 l64:  x108 - x109 + 9 x90 <= 8
 l65:  x109 - x101 + 9 x92 <= 8
 l66:  x109 - x102 + 9 x93 <= 8
 l67:  x109 - x103 + 9 x94 <= 8
 l68:  x109 - x104 + 9 x95 <= 8
 l69:  x109 - x105 + 9 x96 <= 8
 l70:  x109 - x106 + 9 x97 <= 8
 l71:  x109 - x107 + 9 x98 <= 8
 l72:  x109 - x108 + 9 x99 <= 8
 l73:  x2 + x11 <= 1
 l74:  x3 + x21 <= 1
 l75:  x4 + x31 <= 1
 l76:  x5 + x41 <= 1
 l77:  x6 + x51 <= 1
 l78:  x7 + x61 <= 1
 l79:  x8 + x71 <= 1
 l80:  x9 + x81 <= 1
 l81:  x10 + x91 <= 1
 l82:  x13 + x22 <= 1
 l83:  x14 + x32 <= 1
 l84:  x15 + x42 <= 1
 l85:  x16 + x52 <= 1
 l86:  x17 + x62 <= 1
 l87:  x18 + x72 <= 1
 l88:  x19 + x82 <= 1
 l89:  x20 + x92 <= 1
 l90:  x24 + x33 <= 1
 l91:  x25 + x43 <= 1
 l92:  x26 + x53 <= 1
 l93:  x27 + x63 <= 1
 l94:  x28 + x73 <= 1
 l95:  x29 + x83 <= 1
 l96:  x30 + x93 <= 1
 l97:  x35 + x44 <= 1
 l98:  x36 + x54 <= 1
 l99:  x37 + x64 <= 1
 l100: x38 + x74 <= 1
 l101: x39 + x84 <= 1
 l102: x40 + x94 <= 1
 l103: x46 + x55 <= 1
 l104: x47 + x65 <= 1
 l105: x48 + x75 <= 1
 l106: x49 + x85 <= 1
 l107: x50 + x95 <= 1
 l108: x57 + x66 <= 1
 l109: x58 + x76 <= 1
 l110: x59 + x86 <= 1
 l111: x60 + x96 <= 1
 l112: x68 + x77 <= 1
 l113: x69 + x87 <= 1
 l114: x70 + x97 <= 1
 l115: x79 + x88 <= 1
 l116: x80 + x98 <= 1
 l117: x90 + x99 <= 1
 l118: x2 + x13 + x21 <= 2
 l119: x3 + x22 + x11 <= 2
 l120: x2 + x14 + x31 <= 2
 l121: x4 + x32 + x11 <= 2
 l122: x2 + x15 + x41 <= 2
 l123: x5 + x42 + x11 <= 2
 l124: x2 + x16 + x51 <= 2
 l125: x6 + x52 + x11 <= 2
 l126: x2 + x17 + x61 <= 2
 l127: x7 + x62 + x11 <= 2
 l128: x2 + x18 + x71 <= 2
 l129: x8 + x72 + x11 <= 2
 l130: x2 + x19 + x81 <= 2
 l131: x9 + x82 + x11 <= 2
 l132: x2 + x20 + x91 <= 2
 l133: x10 + x92 + x11 <= 2
 l134: x3 + x24 + x31 <= 2
 l135: x4 + x33 + x21 <= 2
 l136: x3 + x25 + x41 <= 2
 l137: x5 + x43 + x21 <= 2
 l138: x3 + x26 + x51 <= 2
 l139: x6 + x53 + x21 <= 2
 l140: x3 + x27 + x61 <= 2
 l141: x7 + x63 + x21 <= 2
 l142: x3 + x28 + x71 <= 2
 l143: x8 + x73 + x21 <= 2
 l144: x3 + x29 + x81 <= 2
 l145: x9 + x83 + x21 <= 2
 l146: x3 + x30 + x91 <= 2
 l147: x10 + x93 + x21 <= 2
 l148: x4 + x35 + x41 <= 2
 l149: x5 + x44 + x31 <= 2
 l150: x4 + x36 + x51 <= 2
 l151: x6 + x54 + x31 <= 2
 l152: x4 + x37 + x61 <= 2
 l153: x7 + x64 + x31 <= 2
 l154: x4 + x38 + x71 <= 2
 l155: x8 + x74 + x31 <= 2
 l156: x4 + x39 + x81 <= 2
 l157: x9 + x84 + x31 <= 2
 l158: x4 + x40 + x91 <= 2
 l159: x10 + x94 + x31 <= 2
 l160: x5 + x46 + x51 <= 2
 l161: x6 + x55 + x41 <= 2
 l162: x5 + x47 + x61 <= 2
 l163: x7 + x65 + x41 <= 2
 l164: x5 + x48 + x71 <= 2
 l165: x8 + x75 + x41 <= 2
 l166: x5 + x49 + x81 <= 2
 l167: x9 + x85 + x41 <= 2
 l168: x5 + x50 + x91 <= 2
 l169: x10 + x95 + x41 <= 2
 l170: x6 + x57 + x61 <= 2
 l171: x7 + x66 + x51 <= 2
 l172: x6 + x58 + x71 <= 2
 l173: x8 + x76 + x51 <= 2
 l174: x6 + x59 + x81 <= 2
 l175: x9 + x86 + x51 <= 2
 l176: x6 + x60 + x91 <= 2
 l177: x10 + x96 + x51 <= 2
 l178: x7 + x68 + x71 <= 2
 l179: x8 + x77 + x61 <= 2
 l180: x7 + x69 + x81 <= 2
 l181: x9 + x87 + x61 <= 2
 l182: x7 + x70 + x91 <= 2
 l183: x10 + x97 + x61 <= 2
 l184: x8 + x79 + x81 <= 2
 l185: x9 + x88 + x71 <= 2
 l186: x8 + x80 + x91 <= 2
 l187: x10 + x98 + x71 <= 2
 l188: x9 + x90 + x91 <= 2
 l189: x10 + x99 + x81 <= 2
 l190: x13 + x24 + x32 <= 2
 l191: x14 + x33 + x22 <= 2
 l192: x13 + x25 + x42 <= 2
 l193: x15 + x43 + x22 <= 2
 l194: x13 + x26 + x52 <= 2
 l195: x16 + x53 + x22 <= 2
 l196: x13 + x27 + x62 <= 2
 l197: x17 + x63 + x22 <= 2
 l198: x13 + x28 + x72 <= 2
 l199: x18 + x73 + x22 <= 2
 l200: x13 + x29 + x82 <= 2
 l201: x19 + x83 + x22 <= 2
 l202: x13 + x30 + x92 <= 2
 l203: x20 + x93 + x22 <= 2
 l204: x14 + x35 + x42 <= 2
 l205: x15 + x44 + x32 <= 2
 l206: x14 + x36 + x52 <= 2
 l207: x16 + x54 + x32 <= 2
 l208: x14 + x37 + x62 <= 2
 l209: x17 + x64 + x32 <= 2
 l210: x14 + x38 + x72 <= 2
 l211: x18 + x74 + x32 <= 2
 l212: x14 + x39 + x82 <= 2
 l213: x19 + x84 + x32 <= 2
 l214: x14 + x40 + x92 <= 2
 l215: x20 + x94 + x32 <= 2
 l216: x15 + x46 + x52 <= 2
 l217: x16 + x55 + x42 <= 2
 l218: x15 + x47 + x62 <= 2
 l219: x17 + x65 + x42 <= 2
 l220: x15 + x48 + x72 <= 2
 l221: x18 + x75 + x42 <= 2
 l222: x15 + x49 + x82 <= 2
 l223: x19 + x85 + x42 <= 2
 l224: x15 + x50 + x92 <= 2
 l225: x20 + x95 + x42 <= 2
 l226: x16 + x57 + x62 <= 2
 l227: x17 + x66 + x52 <= 2
 l228: x16 + x58 + x72 <= 2
 l229: x18 + x76 + x52 <= 2
 l230: x16 + x59 + x82 <= 2
 l231: x19 + x86 + x52 <= 2
 l232: x16 + x60 + x92 <= 2
 l233: x20 + x96 + x52 <= 2
 l234: x17 + x68 + x72 <= 2
 l235: x18 + x77 + x62 <= 2
 l236: x17 + x69 + x82 <= 2
 l237: x19 + x87 + x62 <= 2
 l238: x17 + x70 + x92 <= 2
 l239: x20 + x97 + x62 <= 2
 l240: x18 + x79 + x82 <= 2
 l241: x19 + x88 + x72 <= 2
 l242: x18 + x80 + x92 <= 2
 l243: x20 + x98 + x72 <= 2
 l244: x19 + x90 + x92 <= 2
 l245: x20 + x99 + x82 <= 2
 l246: x24 + x35 + x43 <= 2
 l247: x25 + x44 + x33 <= 2
 l248: x24 + x36 + x53 <= 2
 l249: x26 + x54 + x33 <= 2
 l250: x24 + x37 + x63 <= 2
 l251: x27 + x64 + x33 <= 2
 l252: x24 + x38 + x73 <= 2
 l253: x28 + x74 + x33 <= 2
 l254: x24 + x39 + x83 <= 2
 l255: x29 + x84 + x33 <= 2
 l256: x24 + x40 + x93 <= 2
 l257: x30 + x94 + x33 <= 2
 l258: x25 + x46 + x53 <= 2
 l259: x26 + x55 + x43 <= 2
 l260: x25 + x47 + x63 <= 2
 l261: x27 + x65 + x43 <= 2
 l262: x25 + x48 + x73 <= 2
 l263: x28 + x75 + x43 <= 2
 l264: x25 + x49 + x83 <= 2
 l265: x29 + x85 + x43 <= 2
 l266: x25 + x50 + x93 <= 2
 l267: x30 + x95 + x43 <= 2
 l268: x26 + x57 + x63 <= 2
 l269: x27 + x66 + x53 <= 2
 l270: x26 + x58 + x73 <= 2
 l271: x28 + x76 + x53 <= 2
 l272: x26 + x59 + x83 <= 2
 l273: x29 + x86 + x53 <= 2
 l274: x26 + x60 + x93 <= 2
 l275: x30 + x96 + x53 <= 2
 l276: x27 + x68 + x73 <= 2
 l277: x28 + x77 + x63 <= 2
 l278: x27 + x69 + x83 <= 2
 l279: x29 + x87 + x63 <= 2
 l280: x27 + x70 + x93 <= 2
 l281: x30 + x97 + x63 <= 2
 l282: x28 + x79 + x83 <= 2
 l283: x29 + x88 + x73 <= 2
 l284: x28 + x80 + x93 <= 2
 l285: x30 + x98 + x73 <= 2
 l286: x29 + x90 + x93 <= 2
 l287: x30 + x99 + x83 <= 2
 l288: x35 + x46 + x54 <= 2
 l289: x36 + x55 + x44 <= 2
 l290: x35 + x47 + x64 <= 2
 l291: x37 + x65 + x44 <= 2
 l292: x35 + x48 + x74 <= 2
 l293: x38 + x75 + x44 <= 2
 l294: x35 + x49 + x84 <= 2
 l295: x39 + x85 + x44 <= 2
 l296: x35 + x50 + x94 <= 2
 l297: x40 + x95 + x44 <= 2
 l298: x36 + x57 + x64 <= 2
 l299: x37 + x66 + x54 <= 2
 l300: x36 + x58 + x74 <= 2
 l301: x38 + x76 + x54 <= 2
 l302: x36 + x59 + x84 <= 2
 l303: x39 + x86 + x54 <= 2
 l304: x36 + x60 + x94 <= 2
 l305: x40 + x96 + x54 <= 2
 l306: x37 + x68 + x74 <= 2
 l307: x38 + x77 + x64 <= 2
 l308: x37 + x69 + x84 <= 2
 l309: x39 + x87 + x64 <= 2
 l310: x37 + x70 + x94 <= 2
 l311: x40 + x97 + x64 <= 2
 l312: x38 + x79 + x84 <= 2
 l313: x39 + x88 + x74 <= 2
 l314: x38 + x80 + x94 <= 2
 l315: x40 + x98 + x74 <= 2
 l316: x39 + x90 + x94 <= 2
 l317: x40 + x99 + x84 <= 2
 l318: x46 + x57 + x65 <= 2
 l319: x47 + x66 + x55 <= 2
 l320: x46 + x58 + x75 <= 2
 l321: x48 + x76 + x55 <= 2
 l322: x46 + x59 + x85 <= 2
 l323: x49 + x86 + x55 <= 2
 l324: x46 + x60 + x95 <= 2
 l325: x50 + x96 + x55 <= 2
 l326: x47 + x68 + x75 <= 2
 l327: x48 + x77 + x65 <= 2
 l328: x47 + x69 + x85 <= 2
 l329: x49 + x87 + x65 <= 2
 l330: x47 + x70 + x95 <= 2
 l331: x50 + x97 + x65 <= 2
 l332: x48 + x79 + x85 <= 2
 l333: x49 + x88 + x75 <= 2
 l334: x48 + x80 + x95 <= 2
 l335: x50 + x98 + x75 <= 2
 l336: x49 + x90 + x95 <= 2
 l337: x50 + x99 + x85 <= 2
 l338: x57 + x68 + x76 <= 2
 l339: x58 + x77 + x66 <= 2
 l340: x57 + x69 + x86 <= 2
 l341: x59 + x87 + x66 <= 2
 l342: x57 + x70 + x96 <= 2
 l343: x60 + x97 + x66 <= 2
 l344: x58 + x79 + x86 <= 2
 l345: x59 + x88 + x76 <= 2
 l346: x58 + x80 + x96 <= 2
 l347: x60 + x98 + x76 <= 2
 l348: x59 + x90 + x96 <= 2
 l349: x60 + x99 + x86 <= 2
 l350: x68 + x79 + x87 <= 2
 l351: x69 + x88 + x77 <= 2
 l352: x68 + x80 + x97 <= 2
 l353: x70 + x98 + x77 <= 2
 l354: x69 + x90 + x97 <= 2
 l355: x70 + x99 + x87 <= 2
 l356: x79 + x90 + x98 <= 2
 l357: x80 + x99 + x88 <= 2
Bounds
      x1 = 0
 0 <= x2 <= 1
 0 <= x3 <= 1
 0 <= x4 <= 1
 0 <= x5 <= 1
 0 <= x6 <= 1
 0 <= x7 <= 1
 0 <= x8 <= 1
 0 <= x9 <= 1
 0 <= x10 <= 1
 0 <= x11 <= 1
      x12 = 0
 0 <= x13 <= 1
 0 <= x14 <= 1
 0 <= x15 <= 1
 0 <= x16 <= 1
 0 <= x17 <= 1
 0 <= x18 <= 1
 0 <= x19 <= 1
 0 <= x20 <= 1
 0 <= x21 <= 1
 0 <= x22 <= 1
      x23 = 0
 0 <= x24 <= 1
 0 <= x25 <= 1
 0 <= x26 <= 1
 0 <= x27 <= 1
 0 <= x28 <= 1
 0 <= x29 <= 1
 0 <= x30 <= 1
 0 <= x31 <= 1
 0 <= x32 <= 1
 0 <= x33 <= 1
      x34 = 0
 0 <= x35 <= 1
 0 <= x36 <= 1
 0 <= x37 <= 1
 0 <= x38 <= 1
 0 <= x39 <= 1
 0 <= x40 <= 1
 0 <= x41 <= 1
 0 <= x42 <= 1
 0 <= x43 <= 1
 0 <= x44 <= 1
      x45 = 0
 0 <= x46 <= 1
 0 <= x47 <= 1
 0 <= x48 <= 1
 0 <= x49 <= 1
 0 <= x50 <= 1
 0 <= x51 <= 1
 0 <= x52 <= 1
 0 <= x53 <= 1
 0 <= x54 <= 1
 0 <= x55 <= 1
      x56 = 0
 0 <= x57 <= 1
 0 <= x58 <= 1
 0 <= x59 <= 1
 0 <= x60 <= 1
 0 <= x61 <= 1
 0 <= x62 <= 1
 0 <= x63 <= 1
 0 <= x64 <= 1
 0 <= x65 <= 1
 0 <= x66 <= 1
      x67 = 0
 0 <= x68 <= 1
 0 <= x69 <= 1
 0 <= x70 <= 1
 0 <= x71 <= 1
 0 <= x72 <= 1
 0 <= x73 <= 1
 0 <= x74 <= 1
 0 <= x75 <= 1
 0 <= x76 <= 1
 0 <= x77 <= 1
      x78 = 0
 0 <= x79 <= 1
 0 <= x80 <= 1
 0 <= x81 <= 1
 0 <= x82 <= 1
 0 <= x83 <= 1
 0 <= x84 <= 1
 0 <= x85 <= 1
 0 <= x86 <= 1
 0 <= x87 <= 1
 0 <= x88 <= 1
      x89 = 0
 0 <= x90 <= 1
 0 <= x91 <= 1
 0 <= x92 <= 1
 0 <= x93 <= 1
 0 <= x94 <= 1
 0 <= x95 <= 1
 0 <= x96 <= 1
 0 <= x97 <= 1
 0 <= x98 <= 1
 0 <= x99 <= 1
      x100 = 0
 1 <= x101 <= 9
 1 <= x102 <= 9
 1 <= x103 <= 9
 1 <= x104 <= 9
 1 <= x105 <= 9
 1 <= x106 <= 9
 1 <= x107 <= 9
 1 <= x108 <= 9
 1 <= x109 <= 9
Binaries
 x1  x2  x3  x4  x5  x6  x7  x8  x9  x10  x11  x12  x13  x14  x15  x16  x17 
 x18  x19  x20  x21  x22  x23  x24  x25  x26  x27  x28  x29  x30  x31  x32 
 x33  x34  x35  x36  x37  x38  x39  x40  x41  x42  x43  x44  x45  x46  x47 
 x48  x49  x50  x51  x52  x53  x54  x55  x56  x57  x58  x59  x60  x61  x62 
 x63  x64  x65  x66  x67  x68  x69  x70  x71  x72  x73  x74  x75  x76  x77 
 x78  x79  x80  x81  x82  x83  x84  x85  x86  x87  x88  x89  x90  x91  x92 
 x93  x94  x95  x96  x97  x98  x99  x100 
Generals
 x101  x102  x103  x104  x105  x106  x107  x108  x109 
End
